T = 9; %Numero de trabajadores
N = 2; %Numero de trabajadores por turno
D = 6; %Numero de dias a trabajar
MaxDT = 3; %Maximo dias consecutivos
MaxDL = 2;%Maximo dias libres consecutivos
MinDT = 3; %Minimo dias a trabajar
numIn = 3; %Numero de pares de incompatibles
rel = [|2,4|3,5|6,1|];% pares de incompatibles
supervisores = {1,3,5,6}; %Los supervisores